NAME: Tnm130
COMMENT: Recalculated optimal tour for Tnm130, using LKH got a tour of length 1928734.0
TYPE: TOUR
DIMENSION: 130
TOUR_SECTION:
1
105
102
99
96
93
90
87
84
81
78
75
72
69
66
63
60
57
54
51
48
45
42
39
36
33
30
27
24
21
18
15
12
9
6
3
104
101
106
98
95
92
89
86
109
112
115
118
121
83
80
77
74
71
68
65
62
59
56
53
50
47
44
41
38
35
32
29
26
23
20
17
14
11
8
111
108
5
2
103
100
97
94
91
88
85
82
79
76
73
70
67
64
61
58
55
52
114
117
120
123
126
129
124
127
130
128
125
122
119
116
113
49
46
43
40
37
34
31
28
25
22
19
16
13
10
7
110
107
4 
-1
EOF
